c partition 5 of 5
p cnf 24 17
17 -19 -8 11 0
-16 -22 -8 -11 0
-21 20 -24 4 0
14 16 1 9 0
16 2 -10 20 0
-16 14 1 -2 0
-19 18 -4 21 0
23 -14 -4 -11 0
-14 10 1 17 0
24 -15 11 21 0
13 -19 21 -7 0
-7 -1 -15 -11 0
10 15 -11 9 0
-8 -14 -19 11 0
24 -10 22 -13 0
-11 -15 9 -20 0
12 -21 10 -4 0
